p cnf 10 50
6 -2 -5 0
7 -10 1 0
-5 -7 -6 0
10 -2 -9 0
1 10 -6 0
4 2 -10 0
-2 10 -5 0
4 3 5 0
5 -8 4 0
-10 -2 -3 0
-3 -1 4 0
-1 4 8 0
3 6 -8 0
-9 7 -5 0
-6 -4 9 0
6 -10 4 0
-5 -8 3 0
3 5 -8 0
1 -5 -10 0
10 -8 -5 0
6 -4 -10 0
-6 10 -4 0
-1 4 5 0
-1 -10 -2 0
5 -7 9 0
6 -2 10 0
10 5 4 0
9 8 4 0
-7 1 -6 0
3 -2 -8 0
-3 -9 -2 0
1 2 -7 0
2 6 7 0
-7 -10 -9 0
-4 -6 3 0
-3 -6 4 0
-1 2 -9 0
7 2 -4 0
3 -10 -5 0
-1 5 -3 0
-5 -4 6 0
9 -5 -2 0
-2 -6 10 0
-2 4 -6 0
6 10 1 0
2 -8 -3 0
-9 -8 -5 0
-9 -5 2 0
3 -5 -2 0
-1 -4 -3 0
